% Logging successfully configured
%%%mzn-stat: initTime=0.00426161
%%%mzn-stat: objective=570
%%%mzn-stat: nodes=172
%%%mzn-stat: restarts=0
%%%mzn-stat: peakDepth=172
%%%mzn-stat: solveTime=0.000700165
%%%mzn-stat: variables=370
%%%mzn-stat: propagators=252
%%%mzn-stat: failures=0
%%%mzn-stat: propagations=857
%%%mzn-stat: nogoods=0
%%%mzn-stat: numAtomicConstraintsPropagated=0
%%%mzn-stat: allDifferentNumber1PropagationsTotal=32
%%%mzn-stat: allDifferentNumber1PropagationsThatFoundConflict=0
%%%mzn-stat: allDifferentNumber1PropagationsThatPruned=16
%%%mzn-stat: allDifferentNumber1TotalValuesPruned=76
%%%mzn-stat: allDifferentNumber1TotalHallSetSizeConflict=0
%%%mzn-stat: allDifferentNumber1NumberOfConflicts=0
%%%mzn-stat: allDifferentNumber1MaxHallSetSizeConflict=0
%%%mzn-stat: allDifferentNumber1TotalPruningHallSetSize=125
%%%mzn-stat: allDifferentNumber1NumberOfPruningExplanations=76
%%%mzn-stat: allDifferentNumber1MaxPruningHallSetSize=12
%%%mzn-stat: allDifferentNumber1TotalFixedEdgesAtConflict=0
%%%mzn-stat: allDifferentNumber1TotalVarsInvolvedInPruning=72
%%%mzn-stat: allDifferentNumber1MaxValuesPrunedFromSingleVar=4
%%%mzn-stat: allDifferentNumber1TotalSccSizeAtPruning=45
%%%mzn-stat: allDifferentNumber1NumberOfSccPruningCalls=16
%%%mzn-stat: circuitNumber2PropagationsThatFoundConflict=0
%%%mzn-stat: circuitNumber2TotalFixedEdgesAtConflict=0
%%%mzn-stat: circuitNumber2NumberOfConflicts=0
%%%mzn-stat: circuitNumber2PropagationsThatPruned=1
%%%mzn-stat: circuitNumber2PropagationsTotal=17
%%%mzn-stat: AverageConflictSize=0
%%%mzn-stat: NumUnitNogoodsLearned=0
%%%mzn-stat: AverageLearnedNogoodLength=0
%%%mzn-stat: AverageBacktrackAmount=0
%%%mzn-stat: AverageLbd=0
%%%mzn-stat: 2AutonomousSearchNumBackupCalled=157
%%%mzn-stat: 2AutonomousSearchNumPredicatesRemoved=0
%%%mzn-stat: 2AutonomousSearchNumCalls=158
%%%mzn-stat: 2AutonomousSearchNumPredicatesAdded=0
%%%mzn-stat: 2AutonomousSearchAverageSizeOfHeap=0
%%%mzn-stat: 2AutonomousSearchNumAssignedPredicatesEncountered=0
%%%mzn-stat-end
maxleg = 570;
succ = array1d(1..20,[2, 3, 6, 5, 8, 7, 4, 9, 14, 20, 12, 10, 11, 18, 13, 15, 16, 19, 17, 1]);
% time elapsed: 7.00 s
----------
%%%mzn-stat: initTime=0.00426161
%%%mzn-stat: objective=567
%%%mzn-stat: nodes=326
%%%mzn-stat: restarts=0
%%%mzn-stat: peakDepth=172
%%%mzn-stat: solveTime=0.001418875
%%%mzn-stat: variables=370
%%%mzn-stat: propagators=252
%%%mzn-stat: failures=1
%%%mzn-stat: propagations=1307
%%%mzn-stat: nogoods=1
%%%mzn-stat: numAtomicConstraintsPropagated=0
%%%mzn-stat: allDifferentNumber1PropagationsTotal=62
%%%mzn-stat: allDifferentNumber1PropagationsThatFoundConflict=0
%%%mzn-stat: allDifferentNumber1PropagationsThatPruned=31
%%%mzn-stat: allDifferentNumber1TotalValuesPruned=165
%%%mzn-stat: allDifferentNumber1TotalHallSetSizeConflict=0
%%%mzn-stat: allDifferentNumber1NumberOfConflicts=0
%%%mzn-stat: allDifferentNumber1MaxHallSetSizeConflict=0
%%%mzn-stat: allDifferentNumber1TotalPruningHallSetSize=363
%%%mzn-stat: allDifferentNumber1NumberOfPruningExplanations=165
%%%mzn-stat: allDifferentNumber1MaxPruningHallSetSize=13
%%%mzn-stat: allDifferentNumber1TotalFixedEdgesAtConflict=0
%%%mzn-stat: allDifferentNumber1TotalVarsInvolvedInPruning=151
%%%mzn-stat: allDifferentNumber1MaxValuesPrunedFromSingleVar=4
%%%mzn-stat: allDifferentNumber1TotalSccSizeAtPruning=131
%%%mzn-stat: allDifferentNumber1NumberOfSccPruningCalls=31
%%%mzn-stat: circuitNumber2PropagationsThatFoundConflict=1
%%%mzn-stat: circuitNumber2TotalFixedEdgesAtConflict=9
%%%mzn-stat: circuitNumber2NumberOfConflicts=1
%%%mzn-stat: circuitNumber2PropagationsThatPruned=2
%%%mzn-stat: circuitNumber2PropagationsTotal=32
%%%mzn-stat: AverageConflictSize=9
%%%mzn-stat: NumUnitNogoodsLearned=0
%%%mzn-stat: AverageLearnedNogoodLength=11
%%%mzn-stat: AverageBacktrackAmount=0
%%%mzn-stat: AverageLbd=8
%%%mzn-stat: 2AutonomousSearchNumBackupCalled=296
%%%mzn-stat: 2AutonomousSearchNumPredicatesRemoved=0
%%%mzn-stat: 2AutonomousSearchNumCalls=298
%%%mzn-stat: 2AutonomousSearchNumPredicatesAdded=33
%%%mzn-stat: 2AutonomousSearchAverageSizeOfHeap=0.11073825503355705
%%%mzn-stat: 2AutonomousSearchNumAssignedPredicatesEncountered=33
%%%mzn-stat-end
maxleg = 567;
succ = array1d(1..20,[2, 3, 6, 5, 8, 7, 10, 20, 4, 12, 13, 11, 15, 9, 16, 17, 19, 14, 18, 1]);
% time elapsed: 7.00 s
----------
%%%mzn-stat: initTime=0.00426161
%%%mzn-stat: objective=528
%%%mzn-stat: nodes=484
%%%mzn-stat: restarts=0
%%%mzn-stat: peakDepth=172
%%%mzn-stat: solveTime=0.001935244
%%%mzn-stat: variables=370
%%%mzn-stat: propagators=252
%%%mzn-stat: failures=1
%%%mzn-stat: propagations=1736
%%%mzn-stat: nogoods=1
%%%mzn-stat: numAtomicConstraintsPropagated=0
%%%mzn-stat: allDifferentNumber1PropagationsTotal=89
%%%mzn-stat: allDifferentNumber1PropagationsThatFoundConflict=0
%%%mzn-stat: allDifferentNumber1PropagationsThatPruned=45
%%%mzn-stat: allDifferentNumber1TotalValuesPruned=243
%%%mzn-stat: allDifferentNumber1TotalHallSetSizeConflict=0
%%%mzn-stat: allDifferentNumber1NumberOfConflicts=0
%%%mzn-stat: allDifferentNumber1MaxHallSetSizeConflict=0
%%%mzn-stat: allDifferentNumber1TotalPruningHallSetSize=535
%%%mzn-stat: allDifferentNumber1NumberOfPruningExplanations=243
%%%mzn-stat: allDifferentNumber1MaxPruningHallSetSize=13
%%%mzn-stat: allDifferentNumber1TotalFixedEdgesAtConflict=0
%%%mzn-stat: allDifferentNumber1TotalVarsInvolvedInPruning=222
%%%mzn-stat: allDifferentNumber1MaxValuesPrunedFromSingleVar=4
%%%mzn-stat: allDifferentNumber1TotalSccSizeAtPruning=198
%%%mzn-stat: allDifferentNumber1NumberOfSccPruningCalls=45
%%%mzn-stat: circuitNumber2PropagationsThatFoundConflict=1
%%%mzn-stat: circuitNumber2TotalFixedEdgesAtConflict=9
%%%mzn-stat: circuitNumber2NumberOfConflicts=1
%%%mzn-stat: circuitNumber2PropagationsThatPruned=4
%%%mzn-stat: circuitNumber2PropagationsTotal=46
%%%mzn-stat: AverageConflictSize=9
%%%mzn-stat: NumUnitNogoodsLearned=0
%%%mzn-stat: AverageLearnedNogoodLength=11
%%%mzn-stat: AverageBacktrackAmount=0
%%%mzn-stat: AverageLbd=8
%%%mzn-stat: 2AutonomousSearchNumBackupCalled=442
%%%mzn-stat: 2AutonomousSearchNumPredicatesRemoved=0
%%%mzn-stat: 2AutonomousSearchNumCalls=445
%%%mzn-stat: 2AutonomousSearchNumPredicatesAdded=33
%%%mzn-stat: 2AutonomousSearchAverageSizeOfHeap=0.14831460674157304
%%%mzn-stat: 2AutonomousSearchNumAssignedPredicatesEncountered=66
%%%mzn-stat-end
maxleg = 528;
succ = array1d(1..20,[2, 3, 6, 5, 8, 7, 11, 20, 4, 12, 13, 16, 15, 9, 10, 17, 19, 14, 18, 1]);
% time elapsed: 7.00 s
----------
%%%mzn-stat: initTime=0.00426161
%%%mzn-stat: objective=449
%%%mzn-stat: nodes=626
%%%mzn-stat: restarts=0
%%%mzn-stat: peakDepth=172
%%%mzn-stat: solveTime=0.002424542
%%%mzn-stat: variables=370
%%%mzn-stat: propagators=252
%%%mzn-stat: failures=1
%%%mzn-stat: propagations=2176
%%%mzn-stat: nogoods=1
%%%mzn-stat: numAtomicConstraintsPropagated=0
%%%mzn-stat: allDifferentNumber1PropagationsTotal=115
%%%mzn-stat: allDifferentNumber1PropagationsThatFoundConflict=0
%%%mzn-stat: allDifferentNumber1PropagationsThatPruned=59
%%%mzn-stat: allDifferentNumber1TotalValuesPruned=318
%%%mzn-stat: allDifferentNumber1TotalHallSetSizeConflict=0
%%%mzn-stat: allDifferentNumber1NumberOfConflicts=0
%%%mzn-stat: allDifferentNumber1MaxHallSetSizeConflict=0
%%%mzn-stat: allDifferentNumber1TotalPruningHallSetSize=721
%%%mzn-stat: allDifferentNumber1NumberOfPruningExplanations=318
%%%mzn-stat: allDifferentNumber1MaxPruningHallSetSize=17
%%%mzn-stat: allDifferentNumber1TotalFixedEdgesAtConflict=0
%%%mzn-stat: allDifferentNumber1TotalVarsInvolvedInPruning=291
%%%mzn-stat: allDifferentNumber1MaxValuesPrunedFromSingleVar=5
%%%mzn-stat: allDifferentNumber1TotalSccSizeAtPruning=266
%%%mzn-stat: allDifferentNumber1NumberOfSccPruningCalls=59
%%%mzn-stat: circuitNumber2PropagationsThatFoundConflict=1
%%%mzn-stat: circuitNumber2TotalFixedEdgesAtConflict=9
%%%mzn-stat: circuitNumber2NumberOfConflicts=1
%%%mzn-stat: circuitNumber2PropagationsThatPruned=6
%%%mzn-stat: circuitNumber2PropagationsTotal=60
%%%mzn-stat: AverageConflictSize=9
%%%mzn-stat: NumUnitNogoodsLearned=0
%%%mzn-stat: AverageLearnedNogoodLength=11
%%%mzn-stat: AverageBacktrackAmount=0
%%%mzn-stat: AverageLbd=8
%%%mzn-stat: 2AutonomousSearchNumBackupCalled=572
%%%mzn-stat: 2AutonomousSearchNumPredicatesRemoved=0
%%%mzn-stat: 2AutonomousSearchNumCalls=576
%%%mzn-stat: 2AutonomousSearchNumPredicatesAdded=33
%%%mzn-stat: 2AutonomousSearchAverageSizeOfHeap=0.171875
%%%mzn-stat: 2AutonomousSearchNumAssignedPredicatesEncountered=99
%%%mzn-stat-end
maxleg = 449;
succ = array1d(1..20,[2, 3, 6, 5, 8, 7, 20, 9, 14, 1, 12, 10, 11, 18, 13, 15, 16, 19, 17, 4]);
% time elapsed: 7.00 s
----------
%%%mzn-stat: initTime=0.00426161
%%%mzn-stat: objective=402
%%%mzn-stat: nodes=752
%%%mzn-stat: restarts=0
%%%mzn-stat: peakDepth=172
%%%mzn-stat: solveTime=0.002922268
%%%mzn-stat: variables=370
%%%mzn-stat: propagators=252
%%%mzn-stat: failures=1
%%%mzn-stat: propagations=2641
%%%mzn-stat: nogoods=1
%%%mzn-stat: numAtomicConstraintsPropagated=0
%%%mzn-stat: allDifferentNumber1PropagationsTotal=141
%%%mzn-stat: allDifferentNumber1PropagationsThatFoundConflict=0
%%%mzn-stat: allDifferentNumber1PropagationsThatPruned=74
%%%mzn-stat: allDifferentNumber1TotalValuesPruned=387
%%%mzn-stat: allDifferentNumber1TotalHallSetSizeConflict=0
%%%mzn-stat: allDifferentNumber1NumberOfConflicts=0
%%%mzn-stat: allDifferentNumber1MaxHallSetSizeConflict=0
%%%mzn-stat: allDifferentNumber1TotalPruningHallSetSize=954
%%%mzn-stat: allDifferentNumber1NumberOfPruningExplanations=387
%%%mzn-stat: allDifferentNumber1MaxPruningHallSetSize=17
%%%mzn-stat: allDifferentNumber1TotalFixedEdgesAtConflict=0
%%%mzn-stat: allDifferentNumber1TotalVarsInvolvedInPruning=348
%%%mzn-stat: allDifferentNumber1MaxValuesPrunedFromSingleVar=6
%%%mzn-stat: allDifferentNumber1TotalSccSizeAtPruning=359
%%%mzn-stat: allDifferentNumber1NumberOfSccPruningCalls=74
%%%mzn-stat: circuitNumber2PropagationsThatFoundConflict=1
%%%mzn-stat: circuitNumber2TotalFixedEdgesAtConflict=9
%%%mzn-stat: circuitNumber2NumberOfConflicts=1
%%%mzn-stat: circuitNumber2PropagationsThatPruned=10
%%%mzn-stat: circuitNumber2PropagationsTotal=75
%%%mzn-stat: AverageConflictSize=9
%%%mzn-stat: NumUnitNogoodsLearned=0
%%%mzn-stat: AverageLearnedNogoodLength=11
%%%mzn-stat: AverageBacktrackAmount=0
%%%mzn-stat: AverageLbd=8
%%%mzn-stat: 2AutonomousSearchNumBackupCalled=687
%%%mzn-stat: 2AutonomousSearchNumPredicatesRemoved=0
%%%mzn-stat: 2AutonomousSearchNumCalls=692
%%%mzn-stat: 2AutonomousSearchNumPredicatesAdded=33
%%%mzn-stat: 2AutonomousSearchAverageSizeOfHeap=0.1907514450867052
%%%mzn-stat: 2AutonomousSearchNumAssignedPredicatesEncountered=132
%%%mzn-stat-end
maxleg = 402;
succ = array1d(1..20,[2, 3, 6, 5, 8, 7, 20, 14, 18, 1, 12, 10, 11, 9, 13, 15, 16, 19, 17, 4]);
% time elapsed: 7.00 s
----------
==========
% time elapsed: 7.00 s
%%%mzn-stat: initTime=0.00426161
%%%mzn-stat: objective=402
%%%mzn-stat: nodes=752
%%%mzn-stat: restarts=0
%%%mzn-stat: peakDepth=172
%%%mzn-stat: solveTime=0.00307101
%%%mzn-stat: variables=370
%%%mzn-stat: propagators=252
%%%mzn-stat: failures=2
%%%mzn-stat: propagations=2751
%%%mzn-stat: nogoods=2
%%%mzn-stat: numAtomicConstraintsPropagated=0
%%%mzn-stat: allDifferentNumber1PropagationsTotal=142
%%%mzn-stat: allDifferentNumber1PropagationsThatFoundConflict=0
%%%mzn-stat: allDifferentNumber1PropagationsThatPruned=75
%%%mzn-stat: allDifferentNumber1TotalValuesPruned=393
%%%mzn-stat: allDifferentNumber1TotalHallSetSizeConflict=0
%%%mzn-stat: allDifferentNumber1NumberOfConflicts=0
%%%mzn-stat: allDifferentNumber1MaxHallSetSizeConflict=0
%%%mzn-stat: allDifferentNumber1TotalPruningHallSetSize=1014
%%%mzn-stat: allDifferentNumber1NumberOfPruningExplanations=393
%%%mzn-stat: allDifferentNumber1MaxPruningHallSetSize=19
%%%mzn-stat: allDifferentNumber1TotalFixedEdgesAtConflict=0
%%%mzn-stat: allDifferentNumber1TotalVarsInvolvedInPruning=352
%%%mzn-stat: allDifferentNumber1MaxValuesPrunedFromSingleVar=6
%%%mzn-stat: allDifferentNumber1TotalSccSizeAtPruning=396
%%%mzn-stat: allDifferentNumber1NumberOfSccPruningCalls=75
%%%mzn-stat: circuitNumber2PropagationsThatFoundConflict=2
%%%mzn-stat: circuitNumber2TotalFixedEdgesAtConflict=11
%%%mzn-stat: circuitNumber2NumberOfConflicts=2
%%%mzn-stat: circuitNumber2PropagationsThatPruned=10
%%%mzn-stat: circuitNumber2PropagationsTotal=76
%%%mzn-stat: AverageConflictSize=5.5
%%%mzn-stat: NumUnitNogoodsLearned=1
%%%mzn-stat: AverageLearnedNogoodLength=6
%%%mzn-stat: AverageBacktrackAmount=0
%%%mzn-stat: AverageLbd=4.5
%%%mzn-stat: 2AutonomousSearchNumBackupCalled=687
%%%mzn-stat: 2AutonomousSearchNumPredicatesRemoved=0
%%%mzn-stat: 2AutonomousSearchNumCalls=692
%%%mzn-stat: 2AutonomousSearchNumPredicatesAdded=171
%%%mzn-stat: 2AutonomousSearchAverageSizeOfHeap=0.1907514450867052
%%%mzn-stat: 2AutonomousSearchNumAssignedPredicatesEncountered=132
%%%mzn-stat-end
